11
2147483647 87 40 52 7 74 45 61 79 64 17 
87 2147483647 97 67 68 71 75 33 68 79 62 
40 97 2147483647 45 33 23 87 48 11 61 23 
52 67 45 2147483647 17 64 76 14 51 82 19 
7 68 33 17 2147483647 91 76 39 93 64 58 
74 71 23 64 91 2147483647 2 97 44 44 79 
45 75 87 76 76 2 2147483647 37 49 16 95 
61 33 48 14 39 97 37 2147483647 1 8 69 
79 68 11 51 93 44 49 1 2147483647 54 57 
64 79 61 82 64 44 16 8 54 2147483647 28 
17 62 23 19 58 79 95 69 57 28 2147483647 
